#######################



#######################
Set parameter TimeLimit to value 500
Set parameter SoftMemLimit to value 125
Set parameter MIPFocus to value 2
Set parameter LogFile to value 1202-MIPFocus2-Presolve1-TimeLimit500-k16x240-8.log
Set parameter Presolve to value 1
Set parameter Seed to value 18
Using license file /opt/gurobi/gurobi.lic

Gurobi Optimizer version 12.0.2 build v12.0.2rc0 (linux64 - "Ubuntu 22.04.4 LTS")
Copyright (c) 2025, Gurobi Optimization, LLC

Read MPS format model from file /miplib2010/k16x240.mps.bz2
Reading time = 0.00 seconds
k16x240: 256 rows, 480 columns, 960 nonzeros

Using Gurobi shared library /nfs/shared/static-builds/gurobi1202

CPU model: Intel(R) Xeon(R) E-2388G CPU @ 3.20GHz, instruction set [SSE2|AVX|AVX2|AVX512]
Thread count: 8 physical cores, 16 logical processors, using up to 16 threads

Non-default parameters:
TimeLimit  500
SoftMemLimit  125
MIPFocus  2
Presolve  1
Seed  18

Optimize a model with 256 rows, 480 columns and 960 nonzeros
Model fingerprint: 0x4e80885f
Variable types: 240 continuous, 240 integer (240 binary)
Coefficient statistics:
  Matrix range     [1e+00, 1e+03]
  Objective range  [1e+00, 1e+03]
  Bounds range     [1e+00, 1e+03]
  RHS range        [4e+00, 4e+02]
Found heuristic solution: objective 19474.000000
Presolve time: 0.00s
Presolved: 256 rows, 480 columns, 960 nonzeros
Variable types: 240 continuous, 240 integer (240 binary)

Root relaxation: objective 2.769838e+03, 51 iterations, 0.00 seconds (0.00 work units)

    Nodes    |    Current Node    |     Objective Bounds      |     Work
 Expl Unexpl |  Obj  Depth IntInf | Incumbent    BestBd   Gap | It/Node Time

     0     0 2769.83800    0   14 19474.0000 2769.83800  85.8%     -    0s
H    0     0                    11359.000000 2769.83800  75.6%     -    0s
H    0     0                    11195.000000 2769.83800  75.3%     -    0s
H    0     0                    11088.000000 2769.83800  75.0%     -    0s
H    0     0                    11074.000000 8116.87580  26.7%     -    0s
     0     0 8116.87580    0   26 11074.0000 8116.87580  26.7%     -    0s
H    0     0                    10916.000000 8161.01413  25.2%     -    0s
H    0     0                    10896.000000 8588.30479  21.2%     -    0s
H    0     0                    10840.000000 8588.30479  20.8%     -    0s
     0     0 8588.30479    0   25 10840.0000 8588.30479  20.8%     -    0s
     0     0 8613.92228    0   22 10840.0000 8613.92228  20.5%     -    0s
H    0     0                    10750.000000 8720.59081  18.9%     -    0s
     0     0 8720.59081    0   23 10750.0000 8720.59081  18.9%     -    0s
H    0     0                    10748.000000 8724.13618  18.8%     -    0s
     0     0 8841.67029    0   27 10748.0000 8841.67029  17.7%     -    0s
     0     0 8855.22353    0   40 10748.0000 8855.22353  17.6%     -    0s
     0     0 8861.18726    0   41 10748.0000 8861.18726  17.6%     -    0s
     0     0 9008.07180    0   39 10748.0000 9008.07180  16.2%     -    0s
     0     0 9072.87475    0   38 10748.0000 9072.87475  15.6%     -    0s
     0     0 9083.15283    0   40 10748.0000 9083.15283  15.5%     -    0s
     0     0 9107.12760    0   30 10748.0000 9107.12760  15.3%     -    0s
     0     0 9110.50815    0   37 10748.0000 9110.50815  15.2%     -    0s
     0     0 9142.31790    0   30 10748.0000 9142.31790  14.9%     -    0s
     0     0 9144.59858    0   30 10748.0000 9144.59858  14.9%     -    0s
     0     2 9144.59858    0   30 10748.0000 9144.59858  14.9%     -    0s
H  148   171                    10681.000000 9229.61732  13.6%  39.8    0s
H 1293   955                    10674.000000 9363.34458  12.3%  20.6    0s
 35502 11473 10432.6373   26   33 10674.0000 10098.9913  5.39%  23.9    5s
 82102 13165     cutoff   34      10674.0000 10320.9669  3.31%  24.7   10s

Cutting planes:
  Gomory: 2
  Lift-and-project: 11
  Cover: 83
  Implied bound: 44
  Dual implied bound: 17
  MIR: 199
  Mixing: 1
  Flow cover: 283
  Flow path: 39
  Inf proof: 6
  Zero half: 8
  Network: 58
  Relax-and-lift: 1

Explored 119514 nodes (2762919 simplex iterations) in 13.60 seconds (18.20 work units)
Thread count was 16 (of 16 available processors)

Solution count 10: 10674 10681 10748 ... 11195

Optimal solution found (tolerance 1.00e-04)
Best objective 1.067400000000e+04, best bound 1.067400000000e+04, gap 0.0000%
